Maximize
 0
Subject To
 epc_0!1: +72.73191797193769 y_1!1_2!1 -45.55733051464665 y_1!2_2!1 +63.22238902937539 y_1!3_2!1 +94.40972077883802 y_1!4_2!1 -47.69903375090725 y_1!1_2!2 -23.965004471997958 y_1!2_2!2 -32.722703853189515 y_1!3_2!2 -79.39948613628542 y_1!4_2!2 +60.778883345524434 y_1!1_2!3 +63.28448506980578 y_1!2_2!3 -24.906587396673558 y_1!3_2!3 -37.51959598197993 y_1!4_2!3 -9.19940585063128 y_1!1_2!4 +88.32760918866066 y_1!2_2!4 -37.96267810246039 y_1!3_2!4 +17.796995361475837 y_1!4_2!4 + lambda_0!1 - mu_0 = 0
 epc_0!2: -34.06314838198348 y_1!1_2!1 +49.95573828566401 y_1!2_2!1 -62.615450010570825 y_1!3_2!1 +95.9224299865746 y_1!4_2!1 +76.12951819291209 y_1!1_2!2 +88.52131195256788 y_1!2_2!2 -39.353223070323565 y_1!3_2!2 -44.63037120580993 y_1!4_2!2 +8.330106293166523 y_1!1_2!3 +38.07234362117359 y_1!2_2!3 +96.58025883927726 y_1!3_2!3 +60.97269650076211 y_1!4_2!3 -81.13366298137399 y_1!1_2!4 +70.42280637008821 y_1!2_2!4 +59.35404044201812 y_1!3_2!4 -46.83197626361102 y_1!4_2!4 + lambda_0!2 - mu_0 = 0
 epc_0!3: -65.96289351055157 y_1!1_2!1 +64.0227619119598 y_1!2_2!1 +52.87424988052564 y_1!3_2!1 +24.447341054867437 y_1!4_2!1 +73.14958442130933 y_1!1_2!2 -8.740386905649913 y_1!2_2!2 -11.686391676059344 y_1!3_2!2 -78.47749778509056 y_1!4_2!2 +18.87891846671917 y_1!1_2!3 +8.058047123045455 y_1!2_2!3 -35.587961866179384 y_1!3_2!3 +60.30277847393202 y_1!4_2!3 -64.28675043475985 y_1!1_2!4 +16.522944484095078 y_1!2_2!4 -17.971825865865384 y_1!3_2!4 -72.76663780753213 y_1!4_2!4 + lambda_0!3 - mu_0 = 0
 epc_0!4: +85.50150502328623 y_1!1_2!1 -88.99824463895894 y_1!2_2!1 -52.7825965539962 y_1!3_2!1 +90.24836714206293 y_1!4_2!1 +1.5625321969607597 y_1!1_2!2 -77.09926505318407 y_1!2_2!2 -16.960136690934746 y_1!3_2!2 -48.83130580732913 y_1!4_2!2 -47.2360921589913 y_1!1_2!3 -56.26341710551293 y_1!2_2!3 -62.74780763799326 y_1!3_2!3 +95.01003592980496 y_1!4_2!3 +30.900797504927 y_1!1_2!4 +29.843720185027735 y_1!2_2!4 -41.76225305334738 y_1!3_2!4 +34.843785902924225 y_1!4_2!4 + lambda_0!4 - mu_0 = 0
 dc_0: x_0!1 + x_0!2 + x_0!3 + x_0!4 = 1
 bc_0!1: lambda_0!1 +294.35204291161796 x_0!1 <= 294.35204291161796
 bc_0!2: lambda_0!2 +294.35204291161796 x_0!2 <= 294.35204291161796
 bc_0!3: lambda_0!3 +294.35204291161796 x_0!3 <= 294.35204291161796
 bc_0!4: lambda_0!4 +294.35204291161796 x_0!4 <= 294.35204291161796
 sum_0!1: y_1!1_2!1 - x_1!1 - x_2!1 >= -1
 idk_0!1!1: y_1!1_2!1 - x_1!1 <= 0
 idk_0!1!2: y_1!1_2!1 - x_2!1 <= 0
 sum_0!2: y_1!2_2!1 - x_1!2 - x_2!1 >= -1
 idk_0!2!1: y_1!2_2!1 - x_1!2 <= 0
 idk_0!2!2: y_1!2_2!1 - x_2!1 <= 0
 sum_0!3: y_1!3_2!1 - x_1!3 - x_2!1 >= -1
 idk_0!3!1: y_1!3_2!1 - x_1!3 <= 0
 idk_0!3!2: y_1!3_2!1 - x_2!1 <= 0
 sum_0!4: y_1!4_2!1 - x_1!4 - x_2!1 >= -1
 idk_0!4!1: y_1!4_2!1 - x_1!4 <= 0
 idk_0!4!2: y_1!4_2!1 - x_2!1 <= 0
 sum_0!5: y_1!1_2!2 - x_1!1 - x_2!2 >= -1
 idk_0!5!1: y_1!1_2!2 - x_1!1 <= 0
 idk_0!5!2: y_1!1_2!2 - x_2!2 <= 0
 sum_0!6: y_1!2_2!2 - x_1!2 - x_2!2 >= -1
 idk_0!6!1: y_1!2_2!2 - x_1!2 <= 0
 idk_0!6!2: y_1!2_2!2 - x_2!2 <= 0
 sum_0!7: y_1!3_2!2 - x_1!3 - x_2!2 >= -1
 idk_0!7!1: y_1!3_2!2 - x_1!3 <= 0
 idk_0!7!2: y_1!3_2!2 - x_2!2 <= 0
 sum_0!8: y_1!4_2!2 - x_1!4 - x_2!2 >= -1
 idk_0!8!1: y_1!4_2!2 - x_1!4 <= 0
 idk_0!8!2: y_1!4_2!2 - x_2!2 <= 0
 sum_0!9: y_1!1_2!3 - x_1!1 - x_2!3 >= -1
 idk_0!9!1: y_1!1_2!3 - x_1!1 <= 0
 idk_0!9!2: y_1!1_2!3 - x_2!3 <= 0
 sum_0!10: y_1!2_2!3 - x_1!2 - x_2!3 >= -1
 idk_0!10!1: y_1!2_2!3 - x_1!2 <= 0
 idk_0!10!2: y_1!2_2!3 - x_2!3 <= 0
 sum_0!11: y_1!3_2!3 - x_1!3 - x_2!3 >= -1
 idk_0!11!1: y_1!3_2!3 - x_1!3 <= 0
 idk_0!11!2: y_1!3_2!3 - x_2!3 <= 0
 sum_0!12: y_1!4_2!3 - x_1!4 - x_2!3 >= -1
 idk_0!12!1: y_1!4_2!3 - x_1!4 <= 0
 idk_0!12!2: y_1!4_2!3 - x_2!3 <= 0
 sum_0!13: y_1!1_2!4 - x_1!1 - x_2!4 >= -1
 idk_0!13!1: y_1!1_2!4 - x_1!1 <= 0
 idk_0!13!2: y_1!1_2!4 - x_2!4 <= 0
 sum_0!14: y_1!2_2!4 - x_1!2 - x_2!4 >= -1
 idk_0!14!1: y_1!2_2!4 - x_1!2 <= 0
 idk_0!14!2: y_1!2_2!4 - x_2!4 <= 0
 sum_0!15: y_1!3_2!4 - x_1!3 - x_2!4 >= -1
 idk_0!15!1: y_1!3_2!4 - x_1!3 <= 0
 idk_0!15!2: y_1!3_2!4 - x_2!4 <= 0
 sum_0!16: y_1!4_2!4 - x_1!4 - x_2!4 >= -1
 idk_0!16!1: y_1!4_2!4 - x_1!4 <= 0
 idk_0!16!2: y_1!4_2!4 - x_2!4 <= 0
 epc_1!1: -27.43854045820278 y_0!1_2!1 +7.364122800255998 y_0!2_2!1 +1.4264161161965632 y_0!3_2!1 +81.47641415849287 y_0!4_2!1 -74.33407126172668 y_0!1_2!2 -22.57299784817539 y_0!2_2!2 +66.17900561422951 y_0!3_2!2 -59.7871235699428 y_0!4_2!2 -28.35068238264185 y_0!1_2!3 -69.15288737913004 y_0!2_2!3 +26.645047769433262 y_0!3_2!3 -97.01554146636946 y_0!4_2!3 +2.1136920995164132 y_0!1_2!4 +44.28642281344645 y_0!2_2!4 -99.25674225480566 y_0!3_2!4 +4.680441271712496 y_0!4_2!4 + lambda_1!1 - mu_1 = 0
 epc_1!2: +50.73944190023903 y_0!1_2!1 -62.979540878451566 y_0!2_2!1 -39.342855261339935 y_0!3_2!1 +78.28719400551839 y_0!4_2!1 +38.75469062786044 y_0!1_2!2 +42.54400648071615 y_0!2_2!2 +72.11952167712553 y_0!3_2!2 -49.746504739641196 y_0!4_2!2 +5.6242576897788155 y_0!1_2!3 -5.750189316899849 y_0!2_2!3 -36.87776314699962 y_0!3_2!3 +41.04882243325997 y_0!4_2!3 -10.431222213481405 y_0!1_2!4 -85.33775449146712 y_0!2_2!4 +75.20053206424706 y_0!3_2!4 -42.32640871930793 y_0!4_2!4 + lambda_1!2 - mu_1 = 0
 epc_1!3: +32.372862884047635 y_0!1_2!1 -80.51472930512284 y_0!2_2!1 +14.04284569640781 y_0!3_2!1 +95.0953006568123 y_0!4_2!1 +44.46524885343214 y_0!1_2!2 -65.60358427447815 y_0!2_2!2 +82.44171539329383 y_0!3_2!2 +14.209420180788484 y_0!4_2!2 -46.79852266414406 y_0!1_2!3 +94.58203727222863 y_0!2_2!3 -39.92495044774691 y_0!3_2!3 -39.7869855376771 y_0!4_2!3 +80.03688867821194 y_0!1_2!4 -26.165282937285667 y_0!2_2!4 -57.77730185869592 y_0!3_2!4 -74.46030813230782 y_0!4_2!4 + lambda_1!3 - mu_1 = 0
 epc_1!4: -77.21147066020022 y_0!1_2!1 +3.073368075295406 y_0!2_2!1 -48.4204495479144 y_0!3_2!1 -37.38872436678831 y_0!4_2!1 -13.584444151562963 y_0!1_2!2 -42.939794894687424 y_0!2_2!2 +83.3445754035993 y_0!3_2!2 -88.22193857561223 y_0!4_2!2 +23.750073945159173 y_0!1_2!3 +68.01559844426251 y_0!2_2!3 +85.67993351641834 y_0!3_2!3 +47.91936830944849 y_0!4_2!3 -23.3035877282949 y_0!1_2!4 -12.780879560801168 y_0!2_2!4 +17.047275752882356 y_0!3_2!4 -67.93948531007462 y_0!4_2!4 + lambda_1!4 - mu_1 = 0
 dc_1: x_1!1 + x_1!2 + x_1!3 + x_1!4 = 1
 bc_1!1: lambda_1!1 +294.35204291161796 x_1!1 <= 294.35204291161796
 bc_1!2: lambda_1!2 +294.35204291161796 x_1!2 <= 294.35204291161796
 bc_1!3: lambda_1!3 +294.35204291161796 x_1!3 <= 294.35204291161796
 bc_1!4: lambda_1!4 +294.35204291161796 x_1!4 <= 294.35204291161796
 sum_1!1: y_0!1_2!1 - x_0!1 - x_2!1 >= -1
 idk_1!1!0: y_0!1_2!1 - x_0!1 <= 0
 idk_1!1!2: y_0!1_2!1 - x_2!1 <= 0
 sum_1!2: y_0!2_2!1 - x_0!2 - x_2!1 >= -1
 idk_1!2!0: y_0!2_2!1 - x_0!2 <= 0
 idk_1!2!2: y_0!2_2!1 - x_2!1 <= 0
 sum_1!3: y_0!3_2!1 - x_0!3 - x_2!1 >= -1
 idk_1!3!0: y_0!3_2!1 - x_0!3 <= 0
 idk_1!3!2: y_0!3_2!1 - x_2!1 <= 0
 sum_1!4: y_0!4_2!1 - x_0!4 - x_2!1 >= -1
 idk_1!4!0: y_0!4_2!1 - x_0!4 <= 0
 idk_1!4!2: y_0!4_2!1 - x_2!1 <= 0
 sum_1!5: y_0!1_2!2 - x_0!1 - x_2!2 >= -1
 idk_1!5!0: y_0!1_2!2 - x_0!1 <= 0
 idk_1!5!2: y_0!1_2!2 - x_2!2 <= 0
 sum_1!6: y_0!2_2!2 - x_0!2 - x_2!2 >= -1
 idk_1!6!0: y_0!2_2!2 - x_0!2 <= 0
 idk_1!6!2: y_0!2_2!2 - x_2!2 <= 0
 sum_1!7: y_0!3_2!2 - x_0!3 - x_2!2 >= -1
 idk_1!7!0: y_0!3_2!2 - x_0!3 <= 0
 idk_1!7!2: y_0!3_2!2 - x_2!2 <= 0
 sum_1!8: y_0!4_2!2 - x_0!4 - x_2!2 >= -1
 idk_1!8!0: y_0!4_2!2 - x_0!4 <= 0
 idk_1!8!2: y_0!4_2!2 - x_2!2 <= 0
 sum_1!9: y_0!1_2!3 - x_0!1 - x_2!3 >= -1
 idk_1!9!0: y_0!1_2!3 - x_0!1 <= 0
 idk_1!9!2: y_0!1_2!3 - x_2!3 <= 0
 sum_1!10: y_0!2_2!3 - x_0!2 - x_2!3 >= -1
 idk_1!10!0: y_0!2_2!3 - x_0!2 <= 0
 idk_1!10!2: y_0!2_2!3 - x_2!3 <= 0
 sum_1!11: y_0!3_2!3 - x_0!3 - x_2!3 >= -1
 idk_1!11!0: y_0!3_2!3 - x_0!3 <= 0
 idk_1!11!2: y_0!3_2!3 - x_2!3 <= 0
 sum_1!12: y_0!4_2!3 - x_0!4 - x_2!3 >= -1
 idk_1!12!0: y_0!4_2!3 - x_0!4 <= 0
 idk_1!12!2: y_0!4_2!3 - x_2!3 <= 0
 sum_1!13: y_0!1_2!4 - x_0!1 - x_2!4 >= -1
 idk_1!13!0: y_0!1_2!4 - x_0!1 <= 0
 idk_1!13!2: y_0!1_2!4 - x_2!4 <= 0
 sum_1!14: y_0!2_2!4 - x_0!2 - x_2!4 >= -1
 idk_1!14!0: y_0!2_2!4 - x_0!2 <= 0
 idk_1!14!2: y_0!2_2!4 - x_2!4 <= 0
 sum_1!15: y_0!3_2!4 - x_0!3 - x_2!4 >= -1
 idk_1!15!0: y_0!3_2!4 - x_0!3 <= 0
 idk_1!15!2: y_0!3_2!4 - x_2!4 <= 0
 sum_1!16: y_0!4_2!4 - x_0!4 - x_2!4 >= -1
 idk_1!16!0: y_0!4_2!4 - x_0!4 <= 0
 idk_1!16!2: y_0!4_2!4 - x_2!4 <= 0
 epc_2!1: -19.138029425701703 y_0!1_1!1 +89.51143066227286 y_0!2_1!1 -82.87577968435194 y_0!3_1!1 +72.07387613644585 y_0!4_1!1 -11.778817428803109 y_0!1_1!2 +3.797130795768709 y_0!2_1!2 -93.86625351439577 y_0!3_1!2 +48.149583926742224 y_0!4_1!2 -80.14053966921743 y_0!1_1!3 -69.36512349745234 y_0!2_1!3 -34.72440867043561 y_0!3_1!3 +36.38704663192635 y_0!4_1!3 +76.61075898845033 y_0!1_1!4 +19.749035647603307 y_0!2_1!4 +23.829291803226866 y_0!3_1!4 +76.38933236109872 y_0!4_1!4 + lambda_2!1 - mu_2 = 0
 epc_2!2: +17.25947338466551 y_0!1_1!1 -77.86584654211413 y_0!2_1!1 +35.75138781638677 y_0!3_1!1 -74.17555846624984 y_0!4_1!1 +58.0393512077564 y_0!1_1!2 -37.40666798925072 y_0!2_1!2 -36.30867669794861 y_0!3_1!2 -95.17875574070787 y_0!4_1!2 -90.68936124373437 y_0!1_1!3 -74.14284969683149 y_0!2_1!3 +51.14689339634805 y_0!3_1!3 +40.966824487816666 y_0!4_1!3 -15.019369217882229 y_0!1_1!4 +94.82677025964009 y_0!2_1!4 +0.45333186231901834 y_0!3_1!4 -21.453466183797175 y_0!4_1!4 + lambda_2!2 - mu_2 = 0
 epc_2!3: +26.67815162706333 y_0!1_1!1 +34.36780995147234 y_0!2_1!1 +90.12038316961812 y_0!3_1!1 +4.925986996389554 y_0!4_1!1 +59.887735783988376 y_0!1_1!2 -12.285785725520682 y_0!2_1!2 +49.60218330579511 y_0!3_1!2 +54.98194345031274 y_0!4_1!2 -56.805326697131875 y_0!1_1!3 +44.92437697747192 y_0!2_1!3 +62.90485659450445 y_0!3_1!3 +81.2468899579149 y_0!4_1!3 +84.4873410951684 y_0!1_1!4 +53.96436456791912 y_0!2_1!4 -5.4927161812763785 y_0!3_1!4 -77.0600841689591 y_0!4_1!4 + lambda_2!3 - mu_2 = 0
 epc_2!4: +79.40854888545715 y_0!1_1!1 -25.123918192403778 y_0!2_1!1 +21.890591881381027 y_0!3_1!1 -28.685709592382835 y_0!4_1!1 +77.5429912951088 y_0!1_1!2 +26.120867112816313 y_0!2_1!2 -81.45757269050944 y_0!3_1!2 -88.2399655411053 y_0!4_1!2 +0.7731663086592704 y_0!1_1!3 -60.427958632380175 y_0!2_1!3 +59.62222430012059 y_0!3_1!3 +24.857433015200158 y_0!4_1!3 -74.06857668141859 y_0!1_1!4 -73.23755650698685 y_0!2_1!4 +19.544076645132776 y_0!3_1!4 -50.91454273144351 y_0!4_1!4 + lambda_2!4 - mu_2 = 0
 dc_2: x_2!1 + x_2!2 + x_2!3 + x_2!4 = 1
 bc_2!1: lambda_2!1 +294.35204291161796 x_2!1 <= 294.35204291161796
 bc_2!2: lambda_2!2 +294.35204291161796 x_2!2 <= 294.35204291161796
 bc_2!3: lambda_2!3 +294.35204291161796 x_2!3 <= 294.35204291161796
 bc_2!4: lambda_2!4 +294.35204291161796 x_2!4 <= 294.35204291161796
 sum_2!1: y_0!1_1!1 - x_0!1 - x_1!1 >= -1
 idk_2!1!0: y_0!1_1!1 - x_0!1 <= 0
 idk_2!1!1: y_0!1_1!1 - x_1!1 <= 0
 sum_2!2: y_0!2_1!1 - x_0!2 - x_1!1 >= -1
 idk_2!2!0: y_0!2_1!1 - x_0!2 <= 0
 idk_2!2!1: y_0!2_1!1 - x_1!1 <= 0
 sum_2!3: y_0!3_1!1 - x_0!3 - x_1!1 >= -1
 idk_2!3!0: y_0!3_1!1 - x_0!3 <= 0
 idk_2!3!1: y_0!3_1!1 - x_1!1 <= 0
 sum_2!4: y_0!4_1!1 - x_0!4 - x_1!1 >= -1
 idk_2!4!0: y_0!4_1!1 - x_0!4 <= 0
 idk_2!4!1: y_0!4_1!1 - x_1!1 <= 0
 sum_2!5: y_0!1_1!2 - x_0!1 - x_1!2 >= -1
 idk_2!5!0: y_0!1_1!2 - x_0!1 <= 0
 idk_2!5!1: y_0!1_1!2 - x_1!2 <= 0
 sum_2!6: y_0!2_1!2 - x_0!2 - x_1!2 >= -1
 idk_2!6!0: y_0!2_1!2 - x_0!2 <= 0
 idk_2!6!1: y_0!2_1!2 - x_1!2 <= 0
 sum_2!7: y_0!3_1!2 - x_0!3 - x_1!2 >= -1
 idk_2!7!0: y_0!3_1!2 - x_0!3 <= 0
 idk_2!7!1: y_0!3_1!2 - x_1!2 <= 0
 sum_2!8: y_0!4_1!2 - x_0!4 - x_1!2 >= -1
 idk_2!8!0: y_0!4_1!2 - x_0!4 <= 0
 idk_2!8!1: y_0!4_1!2 - x_1!2 <= 0
 sum_2!9: y_0!1_1!3 - x_0!1 - x_1!3 >= -1
 idk_2!9!0: y_0!1_1!3 - x_0!1 <= 0
 idk_2!9!1: y_0!1_1!3 - x_1!3 <= 0
 sum_2!10: y_0!2_1!3 - x_0!2 - x_1!3 >= -1
 idk_2!10!0: y_0!2_1!3 - x_0!2 <= 0
 idk_2!10!1: y_0!2_1!3 - x_1!3 <= 0
 sum_2!11: y_0!3_1!3 - x_0!3 - x_1!3 >= -1
 idk_2!11!0: y_0!3_1!3 - x_0!3 <= 0
 idk_2!11!1: y_0!3_1!3 - x_1!3 <= 0
 sum_2!12: y_0!4_1!3 - x_0!4 - x_1!3 >= -1
 idk_2!12!0: y_0!4_1!3 - x_0!4 <= 0
 idk_2!12!1: y_0!4_1!3 - x_1!3 <= 0
 sum_2!13: y_0!1_1!4 - x_0!1 - x_1!4 >= -1
 idk_2!13!0: y_0!1_1!4 - x_0!1 <= 0
 idk_2!13!1: y_0!1_1!4 - x_1!4 <= 0
 sum_2!14: y_0!2_1!4 - x_0!2 - x_1!4 >= -1
 idk_2!14!0: y_0!2_1!4 - x_0!2 <= 0
 idk_2!14!1: y_0!2_1!4 - x_1!4 <= 0
 sum_2!15: y_0!3_1!4 - x_0!3 - x_1!4 >= -1
 idk_2!15!0: y_0!3_1!4 - x_0!3 <= 0
 idk_2!15!1: y_0!3_1!4 - x_1!4 <= 0
 sum_2!16: y_0!4_1!4 - x_0!4 - x_1!4 >= -1
 idk_2!16!0: y_0!4_1!4 - x_0!4 <= 0
 idk_2!16!1: y_0!4_1!4 - x_1!4 <= 0
Bounds
 mu_0 free
 mu_1 free
 mu_2 free
Binary
 x_0!1 x_0!2 x_0!3 x_0!4 x_1!1 x_1!2 x_1!3 x_1!4 x_2!1 x_2!2 x_2!3 x_2!4
End
